unknown 499 2 499 100000000
2 2 2 2 2 2 2 2 2 2 2 2 2 2 2 2 2 2 2 2 2 2 2 2 2 2 2 2 2 2 2 2 2 2 2 2 2 2 2 2 2 2 2 2 2 2 2 2 2 2 2 2 2 2 2 2 2 2 2 2 2 2 2 2 2 2 2 2 2 2 2 2 2 2 2 2 2 2 2 2 2 2 2 2 2 2 2 2 2 2 2 2 2 2 2 2 2 2 2 2 2 2 2 2 2 2 2 2 2 2 2 2 2 2 2 2 2 2 2 2 2 2 2 2 2 2 2 2 2 2 2 2 2 2 2 2 2 2 2 2 2 2 2 2 2 2 2 2 2 2 2 2 2 2 2 2 2 2 2 2 2 2 2 2 2 2 2 2 2 2 2 2 2 2 2 2 2 2 2 2 2 2 2 2 2 2 2 2 2 2 2 2 2 2 2 2 2 2 2 2 2 2 2 2 2 2 2 2 2 2 2 2 2 2 2 2 2 2 2 2 2 2 2 2 2 2 2 2 2 2 2 2 2 2 2 2 2 2 2 2 2 2 2 2 2 2 2 2 2 2 2 2 2 2 2 2 2 2 2 2 2 2 2 2 2 2 2 2 2 2 2 2 2 2 2 2 2 2 2 2 2 2 2 2 2 2 2 2 2 2 2 2 2 2 2 2 2 2 2 2 2 2 2 2 2 2 2 2 2 2 2 2 2 2 2 2 2 2 2 2 2 2 2 2 2 2 2 2 2 2 2 2 2 2 2 2 2 2 2 2 2 2 2 2 2 2 2 2 2 2 2 2 2 2 2 2 2 2 2 2 2 2 2 2 2 2 2 2 2 2 2 2 2 2 2 2 2 2 2 2 2 2 2 2 2 2 2 2 2 2 2 2 2 2 2 2 2 2 2 2 2 2 2 2 2 2 2 2 2 2 2 2 2 2 2 2 2 2 2 2 2 2 2 2 2 2 2 2 2 2 2 2 2 2 2 2 2 2 2 2 2 2 2 2 2 2 2 2 2 2 2 2 2 2 2 2 2 2 2 2 2 2 2 2 2 2 2 2 2 2 2 2 2 2 2 2 2 2 2 2 2 2 2 2 2 2 2 2 2 2 2 2 2 2 2 2 2 2 2
1 0 0 1
1 1
1 1 0 1
0 8
1 2 0 2
0 9
1 7
1 3 0 1
0 8
1 4 0 2
0 3
1 7
1 5 0 2
0 5
1 8
1 6 0 2
0 3
1 3
1 7 0 2
0 3
1 8
1 8 0 2
0 9
1 4
1 9 0 2
0 5
1 1
1 10 0 1
1 3
1 11 0 2
0 2
1 7
1 12 0 2
0 3
1 1
1 13 0 2
0 9
1 3
1 14 0 2
0 9
1 6
1 15 0 2
0 8
1 8
1 16 0 1
0 2
2 72 17 0 2
0 1 100
1 0 100
2 72 18 0 2
0 1 100
1 0 100
2 72 19 0 2
0 1 100
1 0 100
2 371 20 0 2
0 1 100
1 0 100
2 371 21 0 2
0 1 100
1 0 100
2 371 22 0 2
0 1 100
1 0 100
2 498 23 0 2
0 1 100
1 0 100
2 498 24 0 2
0 1 100
1 0 100
2 498 25 0 2
0 1 100
1 0 100
2 16 26 0 2
0 1 100
1 0 100
2 16 27 0 2
0 1 100
1 0 100
2 16 28 0 2
0 1 100
1 0 100
2 51 29 0 2
0 1 100
1 0 100
2 51 30 0 2
0 1 100
1 0 100
2 51 31 0 2
0 1 100
1 0 100
2 93 32 0 2
0 1 100
1 0 100
2 93 33 0 2
0 1 100
1 0 100
2 93 34 0 2
0 1 100
1 0 100
2 134 35 0 2
0 1 100
1 0 100
2 134 36 0 2
0 1 100
1 0 100
2 134 37 0 2
0 1 100
1 0 100
2 169 38 0 2
0 1 100
1 0 100
2 169 39 0 2
0 1 100
1 0 100
2 169 40 0 2
0 1 100
1 0 100
2 200 41 0 2
0 1 100
1 0 100
2 200 42 0 2
0 1 100
1 0 100
2 200 43 0 2
0 1 100
1 0 100
2 217 44 0 2
0 1 100
1 0 100
2 217 45 0 2
0 1 100
1 0 100
2 217 46 0 2
0 1 100
1 0 100
2 222 47 0 2
0 1 100
1 0 100
2 222 48 0 2
0 1 100
1 0 100
2 222 49 0 2
0 1 100
1 0 100
2 227 50 0 2
0 1 100
1 0 100
1 51 0 2
0 3
1 2
2 227 52 0 2
0 1 100
1 0 100
2 227 53 0 2
0 1 100
1 0 100
2 268 54 0 2
0 1 100
1 0 100
2 268 55 0 2
0 1 100
1 0 100
2 268 56 0 2
0 1 100
1 0 100
2 309 57 0 2
0 1 100
1 0 100
2 309 58 0 2
0 1 100
1 0 100
2 309 59 0 2
0 1 100
1 0 100
2 350 60 0 2
0 1 100
1 0 100
2 350 61 0 2
0 1 100
1 0 100
2 350 62 0 2
0 1 100
1 0 100
2 384 63 0 2
0 1 100
1 0 100
2 384 64 0 2
0 1 100
1 0 100
2 384 65 0 2
0 1 100
1 0 100
2 393 66 0 2
0 1 100
1 0 100
2 393 67 0 2
0 1 100
1 0 100
2 393 68 0 2
0 1 100
1 0 100
2 434 69 0 2
0 1 100
1 0 100
2 434 70 0 2
0 1 100
1 0 100
2 434 71 0 2
0 1 100
1 0 100
1 72 0 2
0 6
1 6
2 475 73 0 2
0 1 100
1 0 100
2 475 74 0 2
0 1 100
1 0 100
2 475 75 0 2
0 1 100
1 0 100
2 492 76 0 2
0 1 100
1 0 100
2 492 77 0 2
0 1 100
1 0 100
2 492 78 0 2
0 1 100
1 0 100
2 493 79 0 2
0 1 100
1 0 100
2 493 80 0 2
0 1 100
1 0 100
2 493 81 0 2
0 1 100
1 0 100
2 494 82 0 2
0 1 100
1 0 100
2 494 83 0 2
0 1 100
1 0 100
2 494 84 0 2
0 1 100
1 0 100
2 495 85 0 2
0 1 100
1 0 100
2 495 86 0 2
0 1 100
1 0 100
2 495 87 0 2
0 1 100
1 0 100
2 496 88 0 2
0 1 100
1 0 100
2 496 89 0 2
0 1 100
1 0 100
2 496 90 0 2
0 1 100
1 0 100
2 497 91 0 2
0 1 100
1 0 100
2 497 92 0 2
0 1 100
1 0 100
1 93 0 2
0 4
1 7
2 497 94 0 2
0 1 100
1 0 100
2 0 95 0 2
0 1 100
1 0 100
2 0 96 0 2
0 1 100
1 0 100
2 0 97 0 2
0 1 100
1 0 100
2 1 98 0 2
0 1 100
1 0 100
2 1 99 0 2
0 1 100
1 0 100
2 1 100 0 2
0 1 100
1 0 100
2 2 101 0 2
0 1 100
1 0 100
2 2 102 0 2
0 1 100
1 0 100
2 2 103 0 2
0 1 100
1 0 100
2 3 104 0 2
0 1 100
1 0 100
2 3 105 0 2
0 1 100
1 0 100
2 3 106 0 2
0 1 100
1 0 100
2 4 107 0 2
0 1 100
1 0 100
2 4 108 0 2
0 1 100
1 0 100
2 4 109 0 2
0 1 100
1 0 100
2 5 110 0 2
0 1 100
1 0 100
2 5 111 0 2
0 1 100
1 0 100
2 5 112 0 2
0 1 100
1 0 100
2 6 113 0 2
0 1 100
1 0 100
2 6 114 0 2
0 1 100
1 0 100
2 6 115 0 2
0 1 100
1 0 100
2 15 116 0 2
0 1 100
1 0 100
2 15 117 0 2
0 1 100
1 0 100
2 15 118 0 2
0 1 100
1 0 100
2 15 119 0 2
0 1 100
1 0 100
2 15 120 0 2
0 1 100
1 0 100
2 15 121 0 2
0 1 100
1 0 100
2 15 122 0 2
0 1 100
1 0 100
2 15 123 0 2
0 1 100
1 0 100
3 17 20 124 0 4
0 0 1 100
0 1 0 100
1 0 0 100
1 1 1 100
3 23 26 125 0 4
0 0 1 100
0 1 0 100
1 0 0 100
1 1 1 100
3 29 32 126 0 4
0 0 1 100
0 1 0 100
1 0 0 100
1 1 1 100
3 35 38 127 0 4
0 0 1 100
0 1 0 100
1 0 0 100
1 1 1 100
3 41 44 128 0 4
0 0 1 100
0 1 0 100
1 0 0 100
1 1 1 100
3 47 50 129 0 4
0 0 1 100
0 1 0 100
1 0 0 100
1 1 1 100
3 54 57 130 0 4
0 0 1 100
0 1 0 100
1 0 0 100
1 1 1 100
3 60 63 131 0 4
0 0 1 100
0 1 0 100
1 0 0 100
1 1 1 100
3 66 69 132 0 4
0 0 1 100
0 1 0 100
1 0 0 100
1 1 1 100
3 73 76 133 0 4
0 0 1 100
0 1 0 100
1 0 0 100
1 1 1 100
1 134 0 1
1 2
3 79 82 135 0 4
0 0 1 100
0 1 0 100
1 0 0 100
1 1 1 100
3 85 88 136 0 4
0 0 1 100
0 1 0 100
1 0 0 100
1 1 1 100
3 91 95 137 0 4
0 0 1 100
0 1 0 100
1 0 0 100
1 1 1 100
3 98 101 138 0 4
0 0 1 100
0 1 0 100
1 0 0 100
1 1 1 100
3 104 107 139 0 4
0 0 1 100
0 1 0 100
1 0 0 100
1 1 1 100
3 110 113 140 0 4
0 0 1 100
0 1 0 100
1 0 0 100
1 1 1 100
3 7 116 141 0 4
0 0 1 100
0 1 1 100
1 0 1 100
1 1 0 100
3 8 117 142 0 4
0 0 1 100
0 1 1 100
1 0 1 100
1 1 0 100
3 9 118 143 0 4
0 0 1 100
0 1 1 100
1 0 1 100
1 1 0 100
3 10 119 144 0 4
0 0 1 100
0 1 1 100
1 0 1 100
1 1 0 100
3 11 120 145 0 4
0 0 1 100
0 1 1 100
1 0 1 100
1 1 0 100
3 12 121 146 0 4
0 0 1 100
0 1 1 100
1 0 1 100
1 1 0 100
3 13 122 147 0 4
0 0 1 100
0 1 1 100
1 0 1 100
1 1 0 100
3 14 123 148 0 4
0 0 1 100
0 1 1 100
1 0 1 100
1 1 0 100
3 18 30 149 0 4
0 0 1 100
0 1 0 100
1 0 0 100
1 1 1 100
3 42 55 150 0 4
0 0 1 100
0 1 0 100
1 0 0 100
1 1 1 100
3 21 33 151 0 4
0 0 1 100
0 1 0 100
1 0 0 100
1 1 1 100
3 45 58 152 0 4
0 0 1 100
0 1 0 100
1 0 0 100
1 1 1 100
3 24 36 153 0 4
0 0 1 100
0 1 0 100
1 0 0 100
1 1 1 100
3 48 61 154 0 4
0 0 1 100
0 1 0 100
1 0 0 100
1 1 1 100
3 27 39 155 0 4
0 0 1 100
0 1 0 100
1 0 0 100
1 1 1 100
3 52 64 156 0 4
0 0 1 100
0 1 0 100
1 0 0 100
1 1 1 100
3 67 80 157 0 4
0 0 1 100
0 1 0 100
1 0 0 100
1 1 1 100
3 92 105 158 0 4
0 0 1 100
0 1 0 100
1 0 0 100
1 1 1 100
3 70 83 159 0 4
0 0 1 100
0 1 0 100
1 0 0 100
1 1 1 100
3 96 108 160 0 4
0 0 1 100
0 1 0 100
1 0 0 100
1 1 1 100
3 74 86 161 0 4
0 0 1 100
0 1 0 100
1 0 0 100
1 1 1 100
3 99 111 162 0 4
0 0 1 100
0 1 0 100
1 0 0 100
1 1 1 100
3 77 89 163 0 4
0 0 1 100
0 1 0 100
1 0 0 100
1 1 1 100
3 102 114 164 0 4
0 0 1 100
0 1 0 100
1 0 0 100
1 1 1 100
3 124 125 165 0 4
0 0 1 100
0 1 0 100
1 0 0 100
1 1 1 100
3 126 127 166 0 4
0 0 1 100
0 1 0 100
1 0 0 100
1 1 1 100
3 128 129 167 0 4
0 0 1 100
0 1 0 100
1 0 0 100
1 1 1 100
3 130 131 168 0 4
0 0 1 100
0 1 0 100
1 0 0 100
1 1 1 100
1 169 0 2
0 6
1 5
3 132 133 170 0 4
0 0 1 100
0 1 0 100
1 0 0 100
1 1 1 100
3 135 136 171 0 4
0 0 1 100
0 1 0 100
1 0 0 100
1 1 1 100
3 137 138 172 0 4
0 0 1 100
0 1 0 100
1 0 0 100
1 1 1 100
3 139 140 173 0 4
0 0 1 100
0 1 0 100
1 0 0 100
1 1 1 100
3 149 150 174 0 4
0 0 1 100
0 1 0 100
1 0 0 100
1 1 1 100
3 151 152 175 0 4
0 0 1 100
0 1 0 100
1 0 0 100
1 1 1 100
3 153 154 176 0 4
0 0 1 100
0 1 0 100
1 0 0 100
1 1 1 100
3 155 156 177 0 4
0 0 1 100
0 1 0 100
1 0 0 100
1 1 1 100
3 157 158 178 0 4
0 0 1 100
0 1 0 100
1 0 0 100
1 1 1 100
3 159 160 179 0 4
0 0 1 100
0 1 0 100
1 0 0 100
1 1 1 100
3 161 162 180 0 4
0 0 1 100
0 1 0 100
1 0 0 100
1 1 1 100
3 163 164 181 0 4
0 0 1 100
0 1 0 100
1 0 0 100
1 1 1 100
2 165 182 0 2
0 1 100
1 0 100
2 165 183 0 2
0 1 100
1 0 100
2 166 184 0 2
0 1 100
1 0 100
2 166 185 0 2
0 1 100
1 0 100
2 167 186 0 2
0 1 100
1 0 100
2 167 187 0 2
0 1 100
1 0 100
2 168 188 0 2
0 1 100
1 0 100
2 168 189 0 2
0 1 100
1 0 100
2 170 190 0 2
0 1 100
1 0 100
2 170 191 0 2
0 1 100
1 0 100
2 171 192 0 2
0 1 100
1 0 100
2 171 193 0 2
0 1 100
1 0 100
2 172 194 0 2
0 1 100
1 0 100
2 172 195 0 2
0 1 100
1 0 100
2 173 196 0 2
0 1 100
1 0 100
2 173 197 0 2
0 1 100
1 0 100
3 182 184 198 0 4
0 0 1 100
0 1 0 100
1 0 0 100
1 1 1 100
3 186 188 199 0 4
0 0 1 100
0 1 0 100
1 0 0 100
1 1 1 100
1 200 0 2
0 7
1 8
3 183 187 201 0 4
0 0 1 100
0 1 0 100
1 0 0 100
1 1 1 100
3 185 189 202 0 4
0 0 1 100
0 1 0 100
1 0 0 100
1 1 1 100
3 190 192 203 0 4
0 0 1 100
0 1 0 100
1 0 0 100
1 1 1 100
3 194 196 204 0 4
0 0 1 100
0 1 0 100
1 0 0 100
1 1 1 100
3 191 195 205 0 4
0 0 1 100
0 1 0 100
1 0 0 100
1 1 1 100
3 193 197 206 0 4
0 0 1 100
0 1 0 100
1 0 0 100
1 1 1 100
3 141 203 207 0 4
0 0 1 100
0 1 0 100
1 0 0 100
1 1 1 100
3 142 204 208 0 4
0 0 1 100
0 1 0 100
1 0 0 100
1 1 1 100
3 143 205 209 0 4
0 0 1 100
0 1 0 100
1 0 0 100
1 1 1 100
3 144 206 210 0 4
0 0 1 100
0 1 0 100
1 0 0 100
1 1 1 100
3 145 198 211 0 4
0 0 1 100
0 1 0 100
1 0 0 100
1 1 1 100
3 146 199 212 0 4
0 0 1 100
0 1 0 100
1 0 0 100
1 1 1 100
3 147 201 213 0 4
0 0 1 100
0 1 0 100
1 0 0 100
1 1 1 100
3 148 202 214 0 4
0 0 1 100
0 1 0 100
1 0 0 100
1 1 1 100
3 174 207 215 0 4
0 0 1 100
0 1 0 100
1 0 0 100
1 1 1 100
3 175 208 216 0 4
0 0 1 100
0 1 0 100
1 0 0 100
1 1 1 100
1 217 0 1
1 1
3 176 209 218 0 4
0 0 1 100
0 1 0 100
1 0 0 100
1 1 1 100
3 177 210 219 0 4
0 0 1 100
0 1 0 100
1 0 0 100
1 1 1 100
3 178 211 220 0 4
0 0 1 100
0 1 0 100
1 0 0 100
1 1 1 100
3 179 212 221 0 4
0 0 1 100
0 1 0 100
1 0 0 100
1 1 1 100
1 222 0 2
0 2
1 5
3 180 213 223 0 4
0 0 1 100
0 1 0 100
1 0 0 100
1 1 1 100
3 181 214 224 0 4
0 0 1 100
0 1 0 100
1 0 0 100
1 1 1 100
2 215 225 0 2
0 1 100
1 0 100
2 215 226 0 2
0 1 100
1 0 100
1 227 0 1
1 8
2 215 228 0 2
0 1 100
1 0 100
2 215 229 0 2
0 1 100
1 0 100
2 215 230 0 2
0 1 100
1 0 100
2 215 231 0 2
0 1 100
1 0 100
2 215 232 0 2
0 1 100
1 0 100
2 215 233 0 2
0 1 100
1 0 100
2 215 234 0 2
0 1 100
1 0 100
2 215 235 0 2
0 1 100
1 0 100
2 215 236 0 2
0 1 100
1 0 100
2 215 237 0 2
0 1 100
1 0 100
2 216 238 0 2
0 1 100
1 0 100
2 216 239 0 2
0 1 100
1 0 100
2 216 240 0 2
0 1 100
1 0 100
2 216 241 0 2
0 1 100
1 0 100
2 216 242 0 2
0 1 100
1 0 100
2 216 243 0 2
0 1 100
1 0 100
2 216 244 0 2
0 1 100
1 0 100
2 216 245 0 2
0 1 100
1 0 100
2 216 246 0 2
0 1 100
1 0 100
2 216 247 0 2
0 1 100
1 0 100
2 216 248 0 2
0 1 100
1 0 100
2 216 249 0 2
0 1 100
1 0 100
2 218 250 0 2
0 1 100
1 0 100
2 218 251 0 2
0 1 100
1 0 100
2 218 252 0 2
0 1 100
1 0 100
2 218 253 0 2
0 1 100
1 0 100
2 218 254 0 2
0 1 100
1 0 100
2 218 255 0 2
0 1 100
1 0 100
2 218 256 0 2
0 1 100
1 0 100
2 218 257 0 2
0 1 100
1 0 100
2 218 258 0 2
0 1 100
1 0 100
2 218 259 0 2
0 1 100
1 0 100
2 218 260 0 2
0 1 100
1 0 100
2 218 261 0 2
0 1 100
1 0 100
2 219 262 0 2
0 1 100
1 0 100
2 219 263 0 2
0 1 100
1 0 100
2 219 264 0 2
0 1 100
1 0 100
2 219 265 0 2
0 1 100
1 0 100
2 219 266 0 2
0 1 100
1 0 100
2 219 267 0 2
0 1 100
1 0 100
1 268 0 2
0 9
1 7
2 219 269 0 2
0 1 100
1 0 100
2 219 270 0 2
0 1 100
1 0 100
2 219 271 0 2
0 1 100
1 0 100
2 219 272 0 2
0 1 100
1 0 100
2 219 273 0 2
0 1 100
1 0 100
2 219 274 0 2
0 1 100
1 0 100
2 220 275 0 2
0 1 100
1 0 100
2 220 276 0 2
0 1 100
1 0 100
2 220 277 0 2
0 1 100
1 0 100
2 220 278 0 2
0 1 100
1 0 100
2 220 279 0 2
0 1 100
1 0 100
2 220 280 0 2
0 1 100
1 0 100
2 220 281 0 2
0 1 100
1 0 100
2 220 282 0 2
0 1 100
1 0 100
2 220 283 0 2
0 1 100
1 0 100
2 220 284 0 2
0 1 100
1 0 100
2 220 285 0 2
0 1 100
1 0 100
2 220 286 0 2
0 1 100
1 0 100
2 221 287 0 2
0 1 100
1 0 100
2 221 288 0 2
0 1 100
1 0 100
2 221 289 0 2
0 1 100
1 0 100
2 221 290 0 2
0 1 100
1 0 100
2 221 291 0 2
0 1 100
1 0 100
2 221 292 0 2
0 1 100
1 0 100
2 221 293 0 2
0 1 100
1 0 100
2 221 294 0 2
0 1 100
1 0 100
2 221 295 0 2
0 1 100
1 0 100
2 221 296 0 2
0 1 100
1 0 100
2 221 297 0 2
0 1 100
1 0 100
2 221 298 0 2
0 1 100
1 0 100
2 223 299 0 2
0 1 100
1 0 100
2 223 300 0 2
0 1 100
1 0 100
2 223 301 0 2
0 1 100
1 0 100
2 223 302 0 2
0 1 100
1 0 100
2 223 303 0 2
0 1 100
1 0 100
2 223 304 0 2
0 1 100
1 0 100
2 223 305 0 2
0 1 100
1 0 100
2 223 306 0 2
0 1 100
1 0 100
2 223 307 0 2
0 1 100
1 0 100
2 223 308 0 2
0 1 100
1 0 100
1 309 0 2
0 9
1 4
2 223 310 0 2
0 1 100
1 0 100
2 223 311 0 2
0 1 100
1 0 100
2 224 312 0 2
0 1 100
1 0 100
2 224 313 0 2
0 1 100
1 0 100
2 224 314 0 2
0 1 100
1 0 100
2 224 315 0 2
0 1 100
1 0 100
2 224 316 0 2
0 1 100
1 0 100
2 224 317 0 2
0 1 100
1 0 100
2 224 318 0 2
0 1 100
1 0 100
2 224 319 0 2
0 1 100
1 0 100
2 224 320 0 2
0 1 100
1 0 100
2 224 321 0 2
0 1 100
1 0 100
2 224 322 0 2
0 1 100
1 0 100
2 224 323 0 2
0 1 100
1 0 100
2 225 324 0 2
0 0 100
1 1 100
2 238 325 0 2
0 0 100
1 1 100
2 250 326 0 2
0 0 100
1 1 100
2 226 327 0 2
0 0 100
1 1 100
2 239 328 0 2
0 0 100
1 1 100
2 263 329 0 2
0 0 100
1 1 100
2 228 330 0 2
0 0 100
1 1 100
2 252 331 0 2
0 0 100
1 1 100
2 264 332 0 2
0 0 100
1 1 100
2 241 333 0 2
0 0 100
1 1 100
2 253 334 0 2
0 0 100
1 1 100
2 265 335 0 2
0 0 100
1 1 100
2 295 336 0 2
0 0 100
1 1 100
2 320 337 0 2
0 0 100
1 1 100
2 296 338 0 2
0 0 100
1 1 100
2 308 339 0 2
0 0 100
1 1 100
2 285 340 0 2
0 0 100
1 1 100
2 322 341 0 2
0 0 100
1 1 100
2 286 342 0 2
0 0 100
1 1 100
2 311 343 0 2
0 0 100
1 1 100
2 275 344 0 2
0 0 100
1 1 100
2 287 345 0 2
0 0 100
1 1 100
2 299 346 0 2
0 0 100
1 1 100
2 276 347 0 2
0 0 100
1 1 100
2 288 348 0 2
0 0 100
1 1 100
2 313 349 0 2
0 0 100
1 1 100
1 350 0 2
0 3
1 8
2 277 351 0 2
0 0 100
1 1 100
2 301 352 0 2
0 0 100
1 1 100
2 314 353 0 2
0 0 100
1 1 100
2 290 354 0 2
0 0 100
1 1 100
2 302 355 0 2
0 0 100
1 1 100
2 315 356 0 2
0 0 100
1 1 100
2 246 357 0 2
0 0 100
1 1 100
2 271 358 0 2
0 0 100
1 1 100
2 247 359 0 2
0 0 100
1 1 100
2 259 360 0 2
0 0 100
1 1 100
2 236 361 0 2
0 0 100
1 1 100
2 273 362 0 2
0 0 100
1 1 100
2 237 363 0 2
0 0 100
1 1 100
2 261 364 0 2
0 0 100
1 1 100
5 324 325 326 262 365 0 16
0 0 0 0 1 100
0 0 0 1 1 100
0 0 1 0 1 100
0 0 1 1 1 100
0 1 0 0 1 100
0 1 0 1 1 100
0 1 1 0 1 100
0 1 1 1 1 100
1 0 0 0 1 100
1 0 0 1 1 100
1 0 1 0 1 100
1 0 1 1 1 100
1 1 0 0 1 100
1 1 0 1 1 100
1 1 1 0 1 100
1 1 1 1 0 100
5 327 328 251 329 366 0 16
0 0 0 0 1 100
0 0 0 1 1 100
0 0 1 0 1 100
0 0 1 1 1 100
0 1 0 0 1 100
0 1 0 1 1 100
0 1 1 0 1 100
0 1 1 1 1 100
1 0 0 0 1 100
1 0 0 1 1 100
1 0 1 0 1 100
1 0 1 1 1 100
1 1 0 0 1 100
1 1 0 1 1 100
1 1 1 0 1 100
1 1 1 1 0 100
5 330 240 331 332 367 0 16
0 0 0 0 1 100
0 0 0 1 1 100
0 0 1 0 1 100
0 0 1 1 1 100
0 1 0 0 1 100
0 1 0 1 1 100
0 1 1 0 1 100
0 1 1 1 1 100
1 0 0 0 1 100
1 0 0 1 1 100
1 0 1 0 1 100
1 0 1 1 1 100
1 1 0 0 1 100
1 1 0 1 1 100
1 1 1 0 1 100
1 1 1 1 0 100
5 229 333 334 335 368 0 16
0 0 0 0 1 100
0 0 0 1 1 100
0 0 1 0 1 100
0 0 1 1 1 100
0 1 0 0 1 100
0 1 0 1 1 100
0 1 1 0 1 100
0 1 1 1 1 100
1 0 0 0 1 100
1 0 0 1 1 100
1 0 1 0 1 100
1 0 1 1 1 100
1 1 0 0 1 100
1 1 0 1 1 100
1 1 1 0 1 100
1 1 1 1 0 100
5 344 345 346 312 369 0 16
0 0 0 0 1 100
0 0 0 1 1 100
0 0 1 0 1 100
0 0 1 1 1 100
0 1 0 0 1 100
0 1 0 1 1 100
0 1 1 0 1 100
0 1 1 1 1 100
1 0 0 0 1 100
1 0 0 1 1 100
1 0 1 0 1 100
1 0 1 1 1 100
1 1 0 0 1 100
1 1 0 1 1 100
1 1 1 0 1 100
1 1 1 1 0 100
5 347 348 300 349 370 0 16
0 0 0 0 1 100
0 0 0 1 1 100
0 0 1 0 1 100
0 0 1 1 1 100
0 1 0 0 1 100
0 1 0 1 1 100
0 1 1 0 1 100
0 1 1 1 1 100
1 0 0 0 1 100
1 0 0 1 1 100
1 0 1 0 1 100
1 0 1 1 1 100
1 1 0 0 1 100
1 1 0 1 1 100
1 1 1 0 1 100
1 1 1 1 0 100
1 371 0 2
0 4
1 4
5 351 289 352 353 372 0 16
0 0 0 0 1 100
0 0 0 1 1 100
0 0 1 0 1 100
0 0 1 1 1 100
0 1 0 0 1 100
0 1 0 1 1 100
0 1 1 0 1 100
0 1 1 1 1 100
1 0 0 0 1 100
1 0 0 1 1 100
1 0 1 0 1 100
1 0 1 1 1 100
1 1 0 0 1 100
1 1 0 1 1 100
1 1 1 0 1 100
1 1 1 1 0 100
5 278 354 355 356 373 0 16
0 0 0 0 1 100
0 0 0 1 1 100
0 0 1 0 1 100
0 0 1 1 1 100
0 1 0 0 1 100
0 1 0 1 1 100
0 1 1 0 1 100
0 1 1 1 1 100
1 0 0 0 1 100
1 0 0 1 1 100
1 0 1 0 1 100
1 0 1 1 1 100
1 1 0 0 1 100
1 1 0 1 1 100
1 1 1 0 1 100
1 1 1 1 0 100
5 365 366 367 368 374 0 16
0 0 0 0 1 100
0 0 0 1 0 100
0 0 1 0 0 100
0 0 1 1 0 100
0 1 0 0 0 100
0 1 0 1 0 100
0 1 1 0 0 100
0 1 1 1 0 100
1 0 0 0 0 100
1 0 0 1 0 100
1 0 1 0 0 100
1 0 1 1 0 100
1 1 0 0 0 100
1 1 0 1 0 100
1 1 1 0 0 100
1 1 1 1 0 100
5 369 370 372 373 375 0 16
0 0 0 0 1 100
0 0 0 1 0 100
0 0 1 0 0 100
0 0 1 1 0 100
0 1 0 0 0 100
0 1 0 1 0 100
0 1 1 0 0 100
0 1 1 1 0 100
1 0 0 0 0 100
1 0 0 1 0 100
1 0 1 0 0 100
1 0 1 1 0 100
1 1 0 0 0 100
1 1 0 1 0 100
1 1 1 0 0 100
1 1 1 1 0 100
2 374 376 0 2
0 1 100
1 0 100
2 374 377 0 2
0 1 100
1 0 100
2 374 378 0 2
0 1 100
1 0 100
2 374 379 0 2
0 1 100
1 0 100
2 375 380 0 2
0 1 100
1 0 100
2 375 381 0 2
0 1 100
1 0 100
2 375 382 0 2
0 1 100
1 0 100
2 375 383 0 2
0 1 100
1 0 100
1 384 0 2
0 9
1 3
6 283 336 307 337 376 385 0 32
0 0 0 0 0 1 100
0 0 0 0 1 1 100
0 0 0 1 0 1 100
0 0 0 1 1 1 100
0 0 1 0 0 1 100
0 0 1 0 1 1 100
0 0 1 1 0 1 100
0 0 1 1 1 1 100
0 1 0 0 0 1 100
0 1 0 0 1 1 100
0 1 0 1 0 1 100
0 1 0 1 1 1 100
0 1 1 0 0 1 100
0 1 1 0 1 1 100
0 1 1 1 0 1 100
0 1 1 1 1 1 100
1 0 0 0 0 1 100
1 0 0 0 1 1 100
1 0 0 1 0 1 100
1 0 0 1 1 1 100
1 0 1 0 0 1 100
1 0 1 0 1 1 100
1 0 1 1 0 1 100
1 0 1 1 1 1 100
1 1 0 0 0 1 100
1 1 0 0 1 1 100
1 1 0 1 0 1 100
1 1 0 1 1 1 100
1 1 1 0 0 1 100
1 1 1 0 1 1 100
1 1 1 1 0 1 100
1 1 1 1 1 0 100
6 284 338 339 321 377 386 0 32
0 0 0 0 0 1 100
0 0 0 0 1 1 100
0 0 0 1 0 1 100
0 0 0 1 1 1 100
0 0 1 0 0 1 100
0 0 1 0 1 1 100
0 0 1 1 0 1 100
0 0 1 1 1 1 100
0 1 0 0 0 1 100
0 1 0 0 1 1 100
0 1 0 1 0 1 100
0 1 0 1 1 1 100
0 1 1 0 0 1 100
0 1 1 0 1 1 100
0 1 1 1 0 1 100
0 1 1 1 1 1 100
1 0 0 0 0 1 100
1 0 0 0 1 1 100
1 0 0 1 0 1 100
1 0 0 1 1 1 100
1 0 1 0 0 1 100
1 0 1 0 1 1 100
1 0 1 1 0 1 100
1 0 1 1 1 1 100
1 1 0 0 0 1 100
1 1 0 0 1 1 100
1 1 0 1 0 1 100
1 1 0 1 1 1 100
1 1 1 0 0 1 100
1 1 1 0 1 1 100
1 1 1 1 0 1 100
1 1 1 1 1 0 100
6 340 297 310 341 378 387 0 32
0 0 0 0 0 1 100
0 0 0 0 1 1 100
0 0 0 1 0 1 100
0 0 0 1 1 1 100
0 0 1 0 0 1 100
0 0 1 0 1 1 100
0 0 1 1 0 1 100
0 0 1 1 1 1 100
0 1 0 0 0 1 100
0 1 0 0 1 1 100
0 1 0 1 0 1 100
0 1 0 1 1 1 100
0 1 1 0 0 1 100
0 1 1 0 1 1 100
0 1 1 1 0 1 100
0 1 1 1 1 1 100
1 0 0 0 0 1 100
1 0 0 0 1 1 100
1 0 0 1 0 1 100
1 0 0 1 1 1 100
1 0 1 0 0 1 100
1 0 1 0 1 1 100
1 0 1 1 0 1 100
1 0 1 1 1 1 100
1 1 0 0 0 1 100
1 1 0 0 1 1 100
1 1 0 1 0 1 100
1 1 0 1 1 1 100
1 1 1 0 0 1 100
1 1 1 0 1 1 100
1 1 1 1 0 1 100
1 1 1 1 1 0 100
6 342 298 343 323 379 388 0 32
0 0 0 0 0 1 100
0 0 0 0 1 1 100
0 0 0 1 0 1 100
0 0 0 1 1 1 100
0 0 1 0 0 1 100
0 0 1 0 1 1 100
0 0 1 1 0 1 100
0 0 1 1 1 1 100
0 1 0 0 0 1 100
0 1 0 0 1 1 100
0 1 0 1 0 1 100
0 1 0 1 1 1 100
0 1 1 0 0 1 100
0 1 1 0 1 1 100
0 1 1 1 0 1 100
0 1 1 1 1 1 100
1 0 0 0 0 1 100
1 0 0 0 1 1 100
1 0 0 1 0 1 100
1 0 0 1 1 1 100
1 0 1 0 0 1 100
1 0 1 0 1 1 100
1 0 1 1 0 1 100
1 0 1 1 1 1 100
1 1 0 0 0 1 100
1 1 0 0 1 1 100
1 1 0 1 0 1 100
1 1 0 1 1 1 100
1 1 1 0 0 1 100
1 1 1 0 1 1 100
1 1 1 1 0 1 100
1 1 1 1 1 0 100
6 234 357 258 358 380 389 0 32
0 0 0 0 0 1 100
0 0 0 0 1 1 100
0 0 0 1 0 1 100
0 0 0 1 1 1 100
0 0 1 0 0 1 100
0 0 1 0 1 1 100
0 0 1 1 0 1 100
0 0 1 1 1 1 100
0 1 0 0 0 1 100
0 1 0 0 1 1 100
0 1 0 1 0 1 100
0 1 0 1 1 1 100
0 1 1 0 0 1 100
0 1 1 0 1 1 100
0 1 1 1 0 1 100
0 1 1 1 1 1 100
1 0 0 0 0 1 100
1 0 0 0 1 1 100
1 0 0 1 0 1 100
1 0 0 1 1 1 100
1 0 1 0 0 1 100
1 0 1 0 1 1 100
1 0 1 1 0 1 100
1 0 1 1 1 1 100
1 1 0 0 0 1 100
1 1 0 0 1 1 100
1 1 0 1 0 1 100
1 1 0 1 1 1 100
1 1 1 0 0 1 100
1 1 1 0 1 1 100
1 1 1 1 0 1 100
1 1 1 1 1 0 100
6 235 359 360 272 381 390 0 32
0 0 0 0 0 1 100
0 0 0 0 1 1 100
0 0 0 1 0 1 100
0 0 0 1 1 1 100
0 0 1 0 0 1 100
0 0 1 0 1 1 100
0 0 1 1 0 1 100
0 0 1 1 1 1 100
0 1 0 0 0 1 100
0 1 0 0 1 1 100
0 1 0 1 0 1 100
0 1 0 1 1 1 100
0 1 1 0 0 1 100
0 1 1 0 1 1 100
0 1 1 1 0 1 100
0 1 1 1 1 1 100
1 0 0 0 0 1 100
1 0 0 0 1 1 100
1 0 0 1 0 1 100
1 0 0 1 1 1 100
1 0 1 0 0 1 100
1 0 1 0 1 1 100
1 0 1 1 0 1 100
1 0 1 1 1 1 100
1 1 0 0 0 1 100
1 1 0 0 1 1 100
1 1 0 1 0 1 100
1 1 0 1 1 1 100
1 1 1 0 0 1 100
1 1 1 0 1 1 100
1 1 1 1 0 1 100
1 1 1 1 1 0 100
6 361 248 260 362 382 391 0 32
0 0 0 0 0 1 100
0 0 0 0 1 1 100
0 0 0 1 0 1 100
0 0 0 1 1 1 100
0 0 1 0 0 1 100
0 0 1 0 1 1 100
0 0 1 1 0 1 100
0 0 1 1 1 1 100
0 1 0 0 0 1 100
0 1 0 0 1 1 100
0 1 0 1 0 1 100
0 1 0 1 1 1 100
0 1 1 0 0 1 100
0 1 1 0 1 1 100
0 1 1 1 0 1 100
0 1 1 1 1 1 100
1 0 0 0 0 1 100
1 0 0 0 1 1 100
1 0 0 1 0 1 100
1 0 0 1 1 1 100
1 0 1 0 0 1 100
1 0 1 0 1 1 100
1 0 1 1 0 1 100
1 0 1 1 1 1 100
1 1 0 0 0 1 100
1 1 0 0 1 1 100
1 1 0 1 0 1 100
1 1 0 1 1 1 100
1 1 1 0 0 1 100
1 1 1 0 1 1 100
1 1 1 1 0 1 100
1 1 1 1 1 0 100
6 363 249 364 274 383 392 0 32
0 0 0 0 0 1 100
0 0 0 0 1 1 100
0 0 0 1 0 1 100
0 0 0 1 1 1 100
0 0 1 0 0 1 100
0 0 1 0 1 1 100
0 0 1 1 0 1 100
0 0 1 1 1 1 100
0 1 0 0 0 1 100
0 1 0 0 1 1 100
0 1 0 1 0 1 100
0 1 0 1 1 1 100
0 1 1 0 0 1 100
0 1 1 0 1 1 100
0 1 1 1 0 1 100
0 1 1 1 1 1 100
1 0 0 0 0 1 100
1 0 0 0 1 1 100
1 0 0 1 0 1 100
1 0 0 1 1 1 100
1 0 1 0 0 1 100
1 0 1 0 1 1 100
1 0 1 1 0 1 100
1 0 1 1 1 1 100
1 1 0 0 0 1 100
1 1 0 0 1 1 100
1 1 0 1 0 1 100
1 1 0 1 1 1 100
1 1 1 0 0 1 100
1 1 1 0 1 1 100
1 1 1 1 0 1 100
1 1 1 1 1 0 100
1 393 0 2
0 2
1 6
2 385 394 0 2
0 1 100
1 0 100
2 385 395 0 2
0 1 100
1 0 100
2 385 396 0 2
0 1 100
1 0 100
2 385 397 0 2
0 1 100
1 0 100
2 386 398 0 2
0 1 100
1 0 100
2 386 399 0 2
0 1 100
1 0 100
2 386 400 0 2
0 1 100
1 0 100
2 386 401 0 2
0 1 100
1 0 100
2 387 402 0 2
0 1 100
1 0 100
2 387 403 0 2
0 1 100
1 0 100
2 387 404 0 2
0 1 100
1 0 100
2 387 405 0 2
0 1 100
1 0 100
2 388 406 0 2
0 1 100
1 0 100
2 388 407 0 2
0 1 100
1 0 100
2 388 408 0 2
0 1 100
1 0 100
2 388 409 0 2
0 1 100
1 0 100
2 389 410 0 2
0 1 100
1 0 100
2 389 411 0 2
0 1 100
1 0 100
2 389 412 0 2
0 1 100
1 0 100
2 389 413 0 2
0 1 100
1 0 100
2 390 414 0 2
0 1 100
1 0 100
2 390 415 0 2
0 1 100
1 0 100
2 390 416 0 2
0 1 100
1 0 100
2 390 417 0 2
0 1 100
1 0 100
2 391 418 0 2
0 1 100
1 0 100
2 391 419 0 2
0 1 100
1 0 100
2 391 420 0 2
0 1 100
1 0 100
2 391 421 0 2
0 1 100
1 0 100
2 392 422 0 2
0 1 100
1 0 100
2 392 423 0 2
0 1 100
1 0 100
2 392 424 0 2
0 1 100
1 0 100
2 392 425 0 2
0 1 100
1 0 100
3 230 394 426 0 4
0 0 1 100
0 1 1 100
1 0 1 100
1 1 0 100
3 242 395 427 0 4
0 0 1 100
0 1 1 100
1 0 1 100
1 1 0 100
3 254 396 428 0 4
0 0 1 100
0 1 1 100
1 0 1 100
1 1 0 100
3 266 397 429 0 4
0 0 1 100
0 1 1 100
1 0 1 100
1 1 0 100
3 231 398 430 0 4
0 0 1 100
0 1 1 100
1 0 1 100
1 1 0 100
3 243 399 431 0 4
0 0 1 100
0 1 1 100
1 0 1 100
1 1 0 100
3 255 400 432 0 4
0 0 1 100
0 1 1 100
1 0 1 100
1 1 0 100
3 267 401 433 0 4
0 0 1 100
0 1 1 100
1 0 1 100
1 1 0 100
1 434 0 2
0 2
1 2
3 232 402 435 0 4
0 0 1 100
0 1 1 100
1 0 1 100
1 1 0 100
3 244 403 436 0 4
0 0 1 100
0 1 1 100
1 0 1 100
1 1 0 100
3 256 404 437 0 4
0 0 1 100
0 1 1 100
1 0 1 100
1 1 0 100
3 269 405 438 0 4
0 0 1 100
0 1 1 100
1 0 1 100
1 1 0 100
3 233 406 439 0 4
0 0 1 100
0 1 1 100
1 0 1 100
1 1 0 100
3 245 407 440 0 4
0 0 1 100
0 1 1 100
1 0 1 100
1 1 0 100
3 257 408 441 0 4
0 0 1 100
0 1 1 100
1 0 1 100
1 1 0 100
3 270 409 442 0 4
0 0 1 100
0 1 1 100
1 0 1 100
1 1 0 100
3 279 410 443 0 4
0 0 1 100
0 1 1 100
1 0 1 100
1 1 0 100
3 291 411 444 0 4
0 0 1 100
0 1 1 100
1 0 1 100
1 1 0 100
3 303 412 445 0 4
0 0 1 100
0 1 1 100
1 0 1 100
1 1 0 100
3 316 413 446 0 4
0 0 1 100
0 1 1 100
1 0 1 100
1 1 0 100
3 280 414 447 0 4
0 0 1 100
0 1 1 100
1 0 1 100
1 1 0 100
3 292 415 448 0 4
0 0 1 100
0 1 1 100
1 0 1 100
1 1 0 100
3 304 416 449 0 4
0 0 1 100
0 1 1 100
1 0 1 100
1 1 0 100
3 317 417 450 0 4
0 0 1 100
0 1 1 100
1 0 1 100
1 1 0 100
3 281 418 451 0 4
0 0 1 100
0 1 1 100
1 0 1 100
1 1 0 100
3 293 419 452 0 4
0 0 1 100
0 1 1 100
1 0 1 100
1 1 0 100
3 305 420 453 0 4
0 0 1 100
0 1 1 100
1 0 1 100
1 1 0 100
3 318 421 454 0 4
0 0 1 100
0 1 1 100
1 0 1 100
1 1 0 100
3 282 422 455 0 4
0 0 1 100
0 1 1 100
1 0 1 100
1 1 0 100
3 294 423 456 0 4
0 0 1 100
0 1 1 100
1 0 1 100
1 1 0 100
3 306 424 457 0 4
0 0 1 100
0 1 1 100
1 0 1 100
1 1 0 100
3 319 425 458 0 4
0 0 1 100
0 1 1 100
1 0 1 100
1 1 0 100
3 19 426 459 0 4
0 0 1 100
0 1 0 100
1 0 0 100
1 1 1 100
3 22 427 460 0 4
0 0 1 100
0 1 0 100
1 0 0 100
1 1 1 100
3 25 428 461 0 4
0 0 1 100
0 1 0 100
1 0 0 100
1 1 1 100
3 28 429 462 0 4
0 0 1 100
0 1 0 100
1 0 0 100
1 1 1 100
3 31 430 463 0 4
0 0 1 100
0 1 0 100
1 0 0 100
1 1 1 100
3 34 431 464 0 4
0 0 1 100
0 1 0 100
1 0 0 100
1 1 1 100
3 37 432 465 0 4
0 0 1 100
0 1 0 100
1 0 0 100
1 1 1 100
3 40 433 466 0 4
0 0 1 100
0 1 0 100
1 0 0 100
1 1 1 100
3 43 435 467 0 4
0 0 1 100
0 1 0 100
1 0 0 100
1 1 1 100
3 46 436 468 0 4
0 0 1 100
0 1 0 100
1 0 0 100
1 1 1 100
3 49 437 469 0 4
0 0 1 100
0 1 0 100
1 0 0 100
1 1 1 100
3 53 438 470 0 4
0 0 1 100
0 1 0 100
1 0 0 100
1 1 1 100
3 56 439 471 0 4
0 0 1 100
0 1 0 100
1 0 0 100
1 1 1 100
3 59 440 472 0 4
0 0 1 100
0 1 0 100
1 0 0 100
1 1 1 100
3 62 441 473 0 4
0 0 1 100
0 1 0 100
1 0 0 100
1 1 1 100
3 65 442 474 0 4
0 0 1 100
0 1 0 100
1 0 0 100
1 1 1 100
1 475 0 2
0 4
1 2
3 68 443 476 0 4
0 0 1 100
0 1 0 100
1 0 0 100
1 1 1 100
3 71 444 477 0 4
0 0 1 100
0 1 0 100
1 0 0 100
1 1 1 100
3 75 445 478 0 4
0 0 1 100
0 1 0 100
1 0 0 100
1 1 1 100
3 78 446 479 0 4
0 0 1 100
0 1 0 100
1 0 0 100
1 1 1 100
3 81 447 480 0 4
0 0 1 100
0 1 0 100
1 0 0 100
1 1 1 100
3 84 448 481 0 4
0 0 1 100
0 1 0 100
1 0 0 100
1 1 1 100
3 87 449 482 0 4
0 0 1 100
0 1 0 100
1 0 0 100
1 1 1 100
3 90 450 483 0 4
0 0 1 100
0 1 0 100
1 0 0 100
1 1 1 100
3 94 451 484 0 4
0 0 1 100
0 1 0 100
1 0 0 100
1 1 1 100
3 97 452 485 0 4
0 0 1 100
0 1 0 100
1 0 0 100
1 1 1 100
3 100 453 486 0 4
0 0 1 100
0 1 0 100
1 0 0 100
1 1 1 100
3 103 454 487 0 4
0 0 1 100
0 1 0 100
1 0 0 100
1 1 1 100
3 106 455 488 0 4
0 0 1 100
0 1 0 100
1 0 0 100
1 1 1 100
3 109 456 489 0 4
0 0 1 100
0 1 0 100
1 0 0 100
1 1 1 100
3 112 457 490 0 4
0 0 1 100
0 1 0 100
1 0 0 100
1 1 1 100
3 115 458 491 0 4
0 0 1 100
0 1 0 100
1 0 0 100
1 1 1 100
1 492 0 1
1 3
1 493 0 2
0 5
1 2
1 494 0 2
0 7
1 1
1 495 0 2
0 7
1 6
1 496 0 2
0 2
1 1
1 497 0 1
1 3
1 498 0 2
0 2
1 8
